*SENSE:Maximize
NAME          MODEL
ROWS
 N  OBJ
 E  C0000000
 E  C0000001
 E  C0000002
 E  C0000003
 E  C0000004
 E  C0000005
 E  C0000006
 E  C0000007
 E  C0000008
 E  C0000009
COLUMNS
    MARK      'MARKER'                 'INTORG'
    X0000008  C0000000  -2.000000000000e+00
    X0000008  C0000001  -3.000000000000e+00
    X0000008  C0000002  -4.000000000000e+00
    X0000008  C0000003  -5.000000000000e+00
    X0000008  C0000004  -2.000000000000e+00
    X0000008  C0000005  -3.000000000000e+00
    X0000008  C0000006  -7.000000000000e+00
    X0000008  C0000007  -8.000000000000e+00
    X0000008  C0000008  -9.000000000000e+00
    MARK      'MARKER'                 'INTEND'
    MARK      'MARKER'                 'INTORG'
    X0000008  C0000000  -2.000000000000e+00
    X0000008  C0000001  -3.000000000000e+00
    X0000008  C0000002  -4.000000000000e+00
    X0000008  C0000003  -5.000000000000e+00
    X0000008  C0000004  -2.000000000000e+00
    X0000008  C0000005  -3.000000000000e+00
    X0000008  C0000006  -7.000000000000e+00
    X0000008  C0000007  -8.000000000000e+00
    X0000008  C0000008  -9.000000000000e+00
    MARK      'MARKER'                 'INTEND'
    MARK      'MARKER'                 'INTORG'
    X0000008  C0000000  -2.000000000000e+00
    X0000008  C0000001  -3.000000000000e+00
    X0000008  C0000002  -4.000000000000e+00
    X0000008  C0000003  -5.000000000000e+00
    X0000008  C0000004  -2.000000000000e+00
    X0000008  C0000005  -3.000000000000e+00
    X0000008  C0000006  -7.000000000000e+00
    X0000008  C0000007  -8.000000000000e+00
    X0000008  C0000008  -9.000000000000e+00
    MARK      'MARKER'                 'INTEND'
    MARK      'MARKER'                 'INTORG'
    X0000008  C0000000  -2.000000000000e+00
    X0000008  C0000001  -3.000000000000e+00
    X0000008  C0000002  -4.000000000000e+00
    X0000008  C0000003  -5.000000000000e+00
    X0000008  C0000004  -2.000000000000e+00
    X0000008  C0000005  -3.000000000000e+00
    X0000008  C0000006  -7.000000000000e+00
    X0000008  C0000007  -8.000000000000e+00
    X0000008  C0000008  -9.000000000000e+00
    MARK      'MARKER'                 'INTEND'
    MARK      'MARKER'                 'INTORG'
    X0000008  C0000000  -2.000000000000e+00
    X0000008  C0000001  -3.000000000000e+00
    X0000008  C0000002  -4.000000000000e+00
    X0000008  C0000003  -5.000000000000e+00
    X0000008  C0000004  -2.000000000000e+00
    X0000008  C0000005  -3.000000000000e+00
    X0000008  C0000006  -7.000000000000e+00
    X0000008  C0000007  -8.000000000000e+00
    X0000008  C0000008  -9.000000000000e+00
    MARK      'MARKER'                 'INTEND'
    MARK      'MARKER'                 'INTORG'
    X0000008  C0000000  -2.000000000000e+00
    X0000008  C0000001  -3.000000000000e+00
    X0000008  C0000002  -4.000000000000e+00
    X0000008  C0000003  -5.000000000000e+00
    X0000008  C0000004  -2.000000000000e+00
    X0000008  C0000005  -3.000000000000e+00
    X0000008  C0000006  -7.000000000000e+00
    X0000008  C0000007  -8.000000000000e+00
    X0000008  C0000008  -9.000000000000e+00
    MARK      'MARKER'                 'INTEND'
    MARK      'MARKER'                 'INTORG'
    X0000008  C0000000  -2.000000000000e+00
    X0000008  C0000001  -3.000000000000e+00
    X0000008  C0000002  -4.000000000000e+00
    X0000008  C0000003  -5.000000000000e+00
    X0000008  C0000004  -2.000000000000e+00
    X0000008  C0000005  -3.000000000000e+00
    X0000008  C0000006  -7.000000000000e+00
    X0000008  C0000007  -8.000000000000e+00
    X0000008  C0000008  -9.000000000000e+00
    MARK      'MARKER'                 'INTEND'
    MARK      'MARKER'                 'INTORG'
    X0000008  C0000000  -2.000000000000e+00
    X0000008  C0000001  -3.000000000000e+00
    X0000008  C0000002  -4.000000000000e+00
    X0000008  C0000003  -5.000000000000e+00
    X0000008  C0000004  -2.000000000000e+00
    X0000008  C0000005  -3.000000000000e+00
    X0000008  C0000006  -7.000000000000e+00
    X0000008  C0000007  -8.000000000000e+00
    X0000008  C0000008  -9.000000000000e+00
    MARK      'MARKER'                 'INTEND'
    MARK      'MARKER'                 'INTORG'
    X0000008  C0000000  -2.000000000000e+00
    X0000008  C0000001  -3.000000000000e+00
    X0000008  C0000002  -4.000000000000e+00
    X0000008  C0000003  -5.000000000000e+00
    X0000008  C0000004  -2.000000000000e+00
    X0000008  C0000005  -3.000000000000e+00
    X0000008  C0000006  -7.000000000000e+00
    X0000008  C0000007  -8.000000000000e+00
    X0000008  C0000008  -9.000000000000e+00
    MARK      'MARKER'                 'INTEND'
    X0000009  OBJ        1.000000000000e+00
    MARK      'MARKER'                 'INTORG'
    X0000010  C0000005   1.000000000000e+00
    MARK      'MARKER'                 'INTEND'
    MARK      'MARKER'                 'INTORG'
    X0000011  C0000006   1.000000000000e+04
    MARK      'MARKER'                 'INTEND'
    MARK      'MARKER'                 'INTORG'
    X0000012  C0000008   1.000000000000e+00
    MARK      'MARKER'                 'INTEND'
    MARK      'MARKER'                 'INTORG'
    X0000013  C0000005   1.000000000000e+00
    MARK      'MARKER'                 'INTEND'
    MARK      'MARKER'                 'INTORG'
    X0000014  C0000006   1.000000000000e+03
    MARK      'MARKER'                 'INTEND'
    MARK      'MARKER'                 'INTORG'
    X0000015  C0000008   1.000000000000e+00
    MARK      'MARKER'                 'INTEND'
    MARK      'MARKER'                 'INTORG'
    X0000016  C0000000   1.000000000000e+00
    MARK      'MARKER'                 'INTEND'
    MARK      'MARKER'                 'INTORG'
    X0000017  C0000001   1.000000000000e+00
    X0000017  C0000005   1.000000000000e+00
    MARK      'MARKER'                 'INTEND'
    MARK      'MARKER'                 'INTORG'
    X0000018  C0000001   1.000000000000e+00
    X0000018  C0000006   1.000000000000e+02
    MARK      'MARKER'                 'INTEND'
    MARK      'MARKER'                 'INTORG'
    X0000019  C0000001   1.000000000000e+00
    X0000019  C0000007   1.000000000000e+02
    MARK      'MARKER'                 'INTEND'
    MARK      'MARKER'                 'INTORG'
    X0000020  C0000001   1.000000000000e+00
    X0000020  C0000008   1.000000000000e+00
    MARK      'MARKER'                 'INTEND'
    MARK      'MARKER'                 'INTORG'
    X0000021  C0000001   1.000000000000e+00
    MARK      'MARKER'                 'INTEND'
    MARK      'MARKER'                 'INTORG'
    X0000022  C0000005   1.000000000000e+00
    MARK      'MARKER'                 'INTEND'
    MARK      'MARKER'                 'INTORG'
    X0000023  C0000006   1.000000000000e+01
    MARK      'MARKER'                 'INTEND'
    MARK      'MARKER'                 'INTORG'
    X0000024  C0000007   1.000000000000e+01
    MARK      'MARKER'                 'INTEND'
    MARK      'MARKER'                 'INTORG'
    X0000025  C0000002   1.000000000000e+01
    X0000025  C0000008   1.000000000000e+00
    MARK      'MARKER'                 'INTEND'
    MARK      'MARKER'                 'INTORG'
    X0000026  C0000002   1.000000000000e+00
    MARK      'MARKER'                 'INTEND'
    MARK      'MARKER'                 'INTORG'
    X0000027  C0000004   1.000000000000e+00
    X0000027  C0000005   1.000000000000e+00
    MARK      'MARKER'                 'INTEND'
    MARK      'MARKER'                 'INTORG'
    X0000028  C0000006   1.000000000000e+00
    MARK      'MARKER'                 'INTEND'
    MARK      'MARKER'                 'INTORG'
    X0000029  C0000007   1.000000000000e+00
    MARK      'MARKER'                 'INTEND'
    MARK      'MARKER'                 'INTORG'
    X0000030  C0000008   1.000000000000e+00
    MARK      'MARKER'                 'INTEND'
    MARK      'MARKER'                 'INTORG'
    X0000031  C0000003   1.000000000000e+00
    X0000031  C0000009   1.000000000000e+00
    MARK      'MARKER'                 'INTEND'
RHS
    RHS       C0000000   0.000000000000e+00
    RHS       C0000001   0.000000000000e+00
    RHS       C0000002   0.000000000000e+00
    RHS       C0000003   0.000000000000e+00
    RHS       C0000004   0.000000000000e+00
    RHS       C0000005   0.000000000000e+00
    RHS       C0000006   0.000000000000e+00
    RHS       C0000007   0.000000000000e+00
    RHS       C0000008   0.000000000000e+00
    RHS       C0000009   0.000000000000e+00
BOUNDS
